5 5
1 81 0 45 3 4 2 70 4 45
0 58 4 83 2 94 3 23 1 32
2 63 0 93 1 8 3 85 4 81
0 81 4 85 3 79 2 91 1 25
3 33 2 66 4 16 1 55 0 36
-1
0 1 2 5
0 1 2 3 5
0 2 5
0 2 5
0 1 3 5
-2
98 135 248
59 204 252 294
246 383
166 569
42 171 258

468 10
15 5 1 11 24
0 12 23 9 19
10 21 3 7 18
20 2 17 13 8
16 6 22 4 14
